51 43 66 63 74 20 89 37 40 17 35 58 13 5 34 3 25 46 2 33 78 44 41 29 27 80 55 24 18 70 67 73 54 8 62 57 85 50 7 64 28 79 65 53 15 56 45 32 69 72 52 16 21 68 48 90 39 86 22 96 95 36 47 83 60 23 49 94 38 26 11 71 91 10 12 42 75 81 59 4 88 61 77 76 98 31 6 92 9 0 82 99 19 30 14 87 93 97 84 1 

